data;


param d:= 100;
param r:=5;
param p:=0.400000;
param M:=1000;
param U:=
         1         1        1.450425e+00
         2         1       -3.369633e-01
         3         1        1.359235e-01
         4         1        1.650473e+00
         5         1       -5.082228e-01
         6         1       -5.583060e-01
         7         1        1.421180e+00
         8         1        1.593566e-01
         9         1       -6.113863e-01
        10         1       -2.292735e+00
        11         1       -9.390662e-03
        12         1       -3.373122e-01
        13         1       -1.747245e+00
        14         1       -9.798485e-01
        15         1        1.581954e+00
        16         1       -3.490855e-01
        17         1       -1.635727e+00
        18         1       -7.342220e-01
        19         1        8.380063e-02
        20         1       -1.027694e+00
        21         1       -1.816892e-01
        22         1        1.045326e+00
        23         1        1.040003e+00
        24         1        1.005473e+00
        25         1       -2.499961e-01
        26         1       -1.897954e-02
        27         1        4.830960e-01
        28         1       -3.690754e-01
        29         1        1.082944e-01
        30         1        2.110831e-01
        31         1        3.625540e-01
        32         1        1.945108e-02
        33         1        6.777775e-02
        34         1        4.043578e-01
        35         1        1.345883e+00
        36         1       -1.072844e+00
        37         1       -2.264144e-01
        38         1       -9.727491e-01
        39         1       -1.208145e+00
        40         1        7.232972e-01
        41         1       -3.890002e-01
        42         1        6.932574e-01
        43         1        1.041528e+00
        44         1       -6.733040e-01
        45         1        1.057028e-02
        46         1       -2.768058e-01
        47         1        4.344568e-01
        48         1        5.205220e-01
        49         1        4.149911e-02
        50         1       -8.817846e-01
        51         1        5.673894e-02
        52         1        7.276425e-02
        53         1       -2.003291e-01
        54         1       -5.738733e-01
        55         1        9.056837e-01
        56         1        9.719227e-01
        57         1       -5.469942e-01
        58         1       -6.257869e-01
        59         1        1.230872e+00
        60         1        5.280311e-01
        61         1        1.134684e+00
        62         1        8.071231e-01
        63         1       -8.172482e-01
        64         1        1.986903e-01
        65         1        1.456614e+00
        66         1        1.262409e+00
        67         1       -3.257316e-01
        68         1        9.955635e-03
        69         1       -3.809794e-02
        70         1        1.217811e+00
        71         1       -7.205141e-01
        72         1        8.698789e-01
        73         1       -8.822164e-01
        74         1       -2.657470e-01
        75         1       -1.064277e+00
        76         1       -1.070849e+00
        77         1        1.275660e+00
        78         1        1.273052e+00
        79         1        1.845229e-02
        80         1       -9.873399e-01
        81         1        4.485731e-01
        82         1       -6.692819e-01
        83         1        1.030557e-01
        84         1       -1.972142e+00
        85         1       -1.160426e-01
        86         1       -3.874667e-01
        87         1       -2.061937e+00
        88         1        1.039229e+00
        89         1        8.431337e-01
        90         1        2.347263e-01
        91         1        1.864766e-01
        92         1        2.104581e+00
        93         1        3.657415e-01
        94         1       -5.746654e-01
        95         1       -4.833507e-01
        96         1        4.396294e-02
        97         1       -1.812805e+00
        98         1       -6.305140e-01
        99         1       -5.128304e-01
       100         1        9.222429e-01
         1         2        2.069250e+00
         2         2       -8.586790e-01
         3         2       -3.536795e-01
         4         2       -4.876397e-01
         5         2       -2.025662e-01
         6         2       -3.871046e-01
         7         2        7.556124e-01
         8         2       -6.667081e-01
         9         2       -9.119230e-01
        10         2        4.729162e-01
        11         2       -3.545846e-01
        12         2        2.156705e-01
        13         2        8.430856e-01
        14         2       -2.863722e-01
        15         2       -4.001474e-01
        16         2       -1.148023e+00
        17         2       -1.087547e+00
        18         2        1.483697e+00
        19         2        1.454529e+00
        20         2        1.282617e-01
        21         2       -5.801490e-01
        22         2        4.050638e-01
        23         2        7.585564e-01
        24         2       -4.186736e-01
        25         2        8.046455e-01
        26         2        7.617941e-01
        27         2       -2.237239e+00
        28         2       -3.613166e-01
        29         2       -9.484324e-01
        30         2       -7.988838e-01
        31         2        1.759851e-01
        32         2       -3.183416e-02
        33         2       -3.419623e-01
        34         2        5.103437e-01
        35         2       -1.165439e+00
        36         2        8.511994e-01
        37         2       -4.774742e-01
        38         2        7.453863e-01
        39         2       -1.875363e+00
        40         2       -4.285145e-01
        41         2        2.559267e-01
        42         2       -2.516572e-01
        43         2        1.507305e-01
        44         2       -8.988579e-01
        45         2        2.123474e-01
        46         2       -4.229194e-01
        47         2        5.225488e-01
        48         2        4.631240e-01
        49         2       -7.817957e-01
        50         2        6.850689e-01
        51         2        1.428307e+00
        52         2       -1.431496e+00
        53         2        6.132457e-01
        54         2        4.817609e-01
        55         2        1.808051e-01
        56         2       -9.409699e-01
        57         2        4.196617e-01
        58         2        1.214420e+00
        59         2       -1.599630e-01
        60         2       -2.042362e-01
        61         2       -8.845657e-01
        62         2       -2.898035e-01
        63         2        9.189469e-01
        64         2       -6.646954e-01
        65         2       -6.435564e-01
        66         2        1.768267e-01
        67         2       -1.701275e+00
        68         2       -1.767860e+00
        69         2        2.823794e-01
        70         2        2.926554e-01
        71         2        1.243199e+00
        72         2       -1.218961e+00
        73         2        3.148115e-01
        74         2        1.041304e+00
        75         2       -1.105306e+00
        76         2       -1.036620e+00
        77         2        8.485127e-01
        78         2        1.426722e+00
        79         2        1.464854e-02
        80         2       -3.909512e-01
        81         2       -3.603125e-01
        82         2        7.609201e-01
        83         2        2.375132e-02
        84         2       -4.099098e-01
        85         2        4.102498e-01
        86         2       -1.201037e+00
        87         2        3.029095e-01
        88         2       -1.734318e-01
        89         2        2.993876e-01
        90         2        5.089647e-01
        91         2       -1.188800e+00
        92         2        3.577568e-01
        93         2        3.785941e-02
        94         2       -3.167903e-01
        95         2        2.660007e-01
        96         2        1.789126e+00
        97         2       -5.886282e-01
        98         2        4.088245e-01
        99         2        6.472117e-01
       100         2       -5.388669e-01
         1         3        6.408686e-01
         2         3        1.203208e+00
         3         3       -1.066255e-01
         4         3       -2.179513e+00
         5         3        6.571952e-01
         6         3        1.403510e+00
         7         3       -1.004435e+00
         8         3        6.598778e-01
         9         3       -7.669492e-01
        10         3       -2.665362e-01
        11         3        5.367192e-01
        12         3       -7.234145e-01
        13         3       -5.688516e-01
        14         3       -1.141262e+00
        15         3       -1.661838e+00
        16         3        1.189067e-02
        17         3       -5.324889e-01
        18         3       -1.484329e+00
        19         3        3.095766e-01
        20         3        5.521487e-01
        21         3       -9.244706e-01
        22         3        7.346343e-01
        23         3        5.773928e-01
        24         3        5.631191e-02
        25         3       -1.603940e+00
        26         3       -5.829417e-01
        27         3       -3.673661e-01
        28         3        3.854643e-01
        29         3       -2.524611e-01
        30         3       -7.444775e-01
        31         3        9.044336e-01
        32         3        1.261209e+00
        33         3       -9.419678e-01
        34         3        3.053860e-01
        35         3        7.659997e-01
        36         3       -1.288106e-01
        37         3        2.753912e-01
        38         3       -2.519795e-01
        39         3        4.553625e-01
        40         3        3.050391e-01
        41         3       -1.797069e+00
        42         3       -2.360206e-01
        43         3        4.942625e-01
        44         3        2.354633e-01
        45         3       -1.615871e+00
        46         3        1.166828e+00
        47         3       -7.569809e-01
        48         3        2.428185e-01
        49         3        5.053907e-01
        50         3        3.637139e-01
        51         3        2.197838e-01
        52         3       -1.721650e+00
        53         3        4.020872e-01
        54         3        2.762801e-01
        55         3        1.022021e+00
        56         3       -9.320953e-01
        57         3        8.520540e-01
        58         3       -1.185243e+00
        59         3        5.761924e-01
        60         3        6.326943e-01
        61         3       -9.296900e-01
        62         3        3.549705e-01
        63         3       -1.205642e+00
        64         3       -8.395181e-01
        65         3        3.033057e-01
        66         3        3.957640e-01
        67         3        1.296493e+00
        68         3        2.388026e-01
        69         3       -5.243095e-01
        70         3        4.749337e-01
        71         3       -1.823452e-01
        72         3       -5.288706e-01
        73         3       -2.535433e-02
        74         3        1.258063e+00
        75         3       -3.487542e-01
        76         3        3.493524e-01
        77         3        1.048300e-01
        78         3        4.691508e-01
        79         3       -1.671904e+00
        80         3        4.548581e-01
        81         3        1.825110e+00
        82         3        7.925868e-01
        83         3        9.171138e-01
        84         3        1.919445e-01
        85         3       -9.602736e-02
        86         3       -3.234421e-01
        87         3       -1.534099e-01
        88         3       -1.248690e+00
        89         3        4.687671e-01
        90         3       -1.015935e+00
        91         3        8.087907e-01
        92         3        3.027722e-02
        93         3        3.111883e-01
        94         3       -2.364101e-01
        95         3        1.491546e-02
        96         3        1.799716e+00
        97         3        1.624748e-01
        98         3       -7.453946e-01
        99         3        3.417296e-01
       100         3        4.676209e-02
         1         4        4.580493e-01
         2         4        4.769531e-01
         3         4        1.171698e+00
         4         4       -9.951119e-01
         5         4        2.863641e-01
         6         4       -1.139010e+00
         7         4        1.887196e+00
         8         4        5.871071e-01
         9         4       -1.029809e+00
        10         4        1.122779e+00
        11         4       -1.525745e+00
        12         4       -6.740678e-01
        13         4       -4.304644e-01
        14         4        3.807148e-01
        15         4        6.109663e-01
        16         4        1.782676e-01
        17         4        1.045224e+00
        18         4       -5.044317e-01
        19         4       -7.923019e-01
        20         4        1.278089e-01
        21         4        2.066914e+00
        22         4        2.014087e-01
        23         4       -6.293167e-01
        24         4       -1.103577e+00
        25         4        1.731747e+00
        26         4        8.589372e-01
        27         4        5.276161e-01
        28         4       -3.337948e-01
        29         4        2.173404e-01
        30         4       -2.230663e-01
        31         4        2.021894e+00
        32         4        9.320540e-01
        33         4       -7.376960e-01
        34         4        1.371806e+00
        35         4       -3.040421e-01
        36         4        1.462915e+00
        37         4       -1.764493e+00
        38         4        2.036392e-01
        39         4        9.090653e-01
        40         4       -4.643652e-01
        41         4        1.093436e-02
        42         4        8.089246e-01
        43         4        9.197926e-01
        44         4        6.887290e-01
        45         4       -1.751488e+00
        46         4        5.964403e-01
        47         4       -2.070672e-01
        48         4       -6.874246e-02
        49         4        5.090040e-01
        50         4       -3.134285e-01
        51         4        1.621456e+00
        52         4       -9.983593e-01
        53         4        3.388402e-01
        54         4       -3.906253e-01
        55         4       -1.907343e+00
        56         4       -9.312221e-01
        57         4       -2.221316e+00
        58         4        6.946730e-01
        59         4       -5.976901e-01
        60         4        1.469586e+00
        61         4       -1.080159e+00
        62         4        1.397390e+00
        63         4        1.118209e+00
        64         4       -2.301859e-01
        65         4       -1.079429e+00
        66         4        4.060180e-01
        67         4        1.285417e-01
        68         4        1.400119e+00
        69         4       -4.623686e-01
        70         4        2.786892e-01
        71         4        1.447224e-01
        72         4        1.121747e-02
        73         4       -4.436885e-01
        74         4        8.807902e-01
        75         4       -4.263290e-01
        76         4       -3.568919e-01
        77         4       -1.554204e-01
        78         4       -1.917929e-01
        79         4        7.933181e-03
        80         4       -7.502999e-01
        81         4       -2.429978e-01
        82         4        2.929889e-02
        83         4       -2.318162e+00
        84         4       -1.456578e+00
        85         4        1.049216e-01
        86         4        5.198845e-01
        87         4        2.034132e+00
        88         4       -8.901897e-01
        89         4       -7.630051e-01
        90         4       -3.247881e-01
        91         4       -1.371351e+00
        92         4       -7.394239e-01
        93         4        5.717442e-01
        94         4        1.701718e+00
        95         4       -2.889719e-01
        96         4        8.044701e-01
        97         4       -1.554128e-01
        98         4       -4.839180e-01
        99         4        1.186574e+00
       100         4       -8.192322e-01
         1         5       -8.293663e-01
         2         5       -1.198029e+00
         3         5       -1.388551e+00
         4         5        1.045261e+00
         5         5       -8.485108e-02
         6         5        7.814343e-02
         7         5        1.115466e+00
         8         5        3.816355e-01
         9         5       -7.698758e-01
        10         5        5.107095e-01
        11         5        4.322168e-01
        12         5       -5.917413e-01
        13         5        6.484867e-01
        14         5       -5.389092e-02
        15         5        1.213325e+00
        16         5        1.216997e+00
        17         5        1.027885e+00
        18         5       -1.377794e-01
        19         5        1.203186e+00
        20         5       -9.666238e-02
        21         5       -9.807961e-01
        22         5        5.042945e-01
        23         5       -5.975952e-01
        24         5       -4.518112e-01
        25         5        5.689851e-01
        26         5       -1.917385e-01
        27         5        1.004890e+00
        28         5        3.250485e-01
        29         5        7.774018e-01
        30         5        5.336475e-01
        31         5        1.338475e+00
        32         5       -8.345972e-01
        33         5       -3.431939e-01
        34         5       -2.625820e-01
        35         5        3.992181e-01
        36         5        1.052791e+00
        37         5        8.962968e-01
        38         5        4.141364e-01
        39         5       -1.749147e+00
        40         5        2.954060e-01
        41         5       -6.231081e-01
        42         5        5.211213e-01
        43         5        3.554972e-01
        44         5       -7.362965e-01
        45         5        3.515925e-01
        46         5        3.821088e-01
        47         5        1.945565e+00
        48         5        3.725743e-01
        49         5       -6.188337e-01
        50         5       -3.578702e-01
        51         5        1.445719e+00
        52         5        1.414255e+00
        53         5        2.947975e-02
        54         5        3.687456e-01
        55         5        2.504103e-01
        56         5        7.909363e-01
        57         5        1.048241e+00
        58         5       -2.658946e-01
        59         5        4.880450e-01
        60         5        9.509812e-01
        61         5       -2.645682e+00
        62         5       -1.429802e+00
        63         5       -1.081573e-01
        64         5        1.037690e+00
        65         5       -6.202305e-01
        66         5        4.003980e-02
        67         5        4.293090e-01
        68         5        4.262476e-01
        69         5       -1.236001e+00
        70         5       -5.380662e-01
        71         5        8.704203e-01
        72         5        5.213017e-01
        73         5       -1.238161e+00
        74         5        1.566215e+00
        75         5        2.206818e+00
        76         5       -1.140049e+00
        77         5       -5.327303e-01
        78         5       -1.190433e+00
        79         5        1.086488e-02
        80         5        1.325419e+00
        81         5       -2.124298e-01
        82         5       -4.176635e-01
        83         5       -1.589346e+00
        84         5       -4.889713e-01
        85         5       -1.474954e+00
        86         5       -6.457714e-02
        87         5       -5.876597e-01
        88         5        5.022688e-01
        89         5       -2.077343e-01
        90         5        1.238566e+00
        91         5        1.261318e+00
        92         5        5.536139e-01
        93         5        6.014075e-01
        94         5       -6.120335e-01
        95         5       -5.802469e-01
        96         5       -2.274953e-01
        97         5       -3.715587e-01
        98         5        2.184796e+00
        99         5        2.219889e+00
       100         5        1.783687e+00
;

param theta:=
    1        2.064019e+00
    2        3.381209e-01
    3        9.065248e-02
    4        1.758331e-01
    5        9.850586e-01
;
param X_true:=
    1        3.013825e+00
    2       -1.973793e+00
    3       -1.009401e+00
    4        3.896996e+00
    5       -1.091102e+00
    6       -1.279266e+00
    7        4.526424e+00
    8        6.432920e-01
    9       -2.578448e+00
   10       -3.895290e+00
   11        6.518343e-02
   12       -1.389506e+00
   13       -2.810319e+00
   14       -2.207865e+00
   15        4.281671e+00
   16        1.231398e-01
   17       -2.595298e+00
   18       -1.372125e+00
   19        1.739317e+00
   20       -2.101303e+00
   21       -1.258527e+00
   22        2.894472e+00
   23        1.757377e+00
   24        1.297875e+00
   25        4.766378e-01
   26        1.275536e-01
   27        1.289336e+00
   28       -5.868321e-01
   29        6.835269e-01
   30        5.836277e-01
   31        2.563017e+00
   32       -5.152930e-01
   33       -5.292509e-01
   34        1.018038e+00
   35        2.793513e+00
   36       -6.448097e-01
   37       -3.234482e-02
   38       -1.334993e+00
   39       -4.650006e+00
   40        1.584396e+00
   41       -1.490624e+00
   42        1.978751e+00
   43        2.757336e+00
   44       -2.276418e+00
   45       -1.551248e-02
   46       -1.287408e-01
   47        2.885384e+00
   48        1.607085e+00
   49       -6.513105e-01
   50       -1.961846e+00
   51        2.328808e+00
   52        7.268052e-01
   53       -7.995127e-02
   54       -7.031608e-01
   55        1.935723e+00
   56        2.219231e+00
   57       -2.673741e-01
   58       -1.128136e+00
   59        2.915576e+00
   60        2.275026e+00
   61       -8.379003e-01
   62        4.367371e-01
   63       -1.395113e+00
   64        1.090842e+00
   65        2.016796e+00
   66        2.812888e+00
   67       -6.840433e-01
   68        1.096020e-01
   69       -1.328822e+00
   70        2.173701e+00
   71       -1.994392e-01
   72        1.850197e+00
   73       -3.012786e+00
   74        1.613527e+00
   75       -5.059508e-01
   76       -3.714267e+00
   77        2.375801e+00
   78        1.946024e+00
   79       -9.590500e-02
   80       -9.539013e-01
   81        7.167796e-01
   82       -1.458723e+00
   83       -1.668136e+00
   84       -4.928590e+00
   85       -1.544701e+00
   86       -1.206981e+00
   87       -4.387164e+00
   88        2.310384e+00
   89        1.545232e+00
   90        1.727067e+00
   91        1.056571e+00
   92        4.886097e+00
   93        1.488770e+00
   94       -1.617530e+00
   95       -1.529231e+00
   96        7.759751e-01
   97       -4.319080e+00
   98        8.366857e-01
   99        1.587187e+00
  100        3.338575e+00
;
param X:=
    1       -5.179457e-01
    2        6.147587e-01
    3       -1.009401e+00
    4        3.896996e+00
    5       -1.091102e+00
    6       -1.279266e+00
    7       -7.161360e-01
    8        6.432920e-01
    9       -2.578448e+00
   10       -3.895290e+00
   11       -1.194990e+00
   12       -1.082628e+00
   13       -2.810319e+00
   14       -2.207865e+00
   15        4.281671e+00
   16        1.231398e-01
   17        1.043957e+00
   18       -1.780145e+00
   19        1.739317e+00
   20       -2.101303e+00
   21       -1.258527e+00
   22       -1.087610e+00
   23        1.757377e+00
   24        1.297875e+00
   25        4.766378e-01
   26        2.504354e-01
   27        1.289336e+00
   28       -5.868321e-01
   29       -1.653094e+00
   30        5.836277e-01
   31        2.563017e+00
   32       -5.152930e-01
   33       -5.292509e-01
   34       -7.423217e-01
   35        8.762620e-01
   36       -5.724615e-01
   37        5.949213e-01
   38       -1.334993e+00
   39       -4.650006e+00
   40        8.167490e-01
   41       -6.166763e-02
   42        1.978751e+00
   43        1.658548e+00
   44       -1.439652e-01
   45       -1.551248e-02
   46       -1.287408e-01
   47       -8.720066e-01
   48        1.607085e+00
   49       -6.513105e-01
   50       -1.961846e+00
   51        2.328808e+00
   52        7.268052e-01
   53       -7.995127e-02
   54       -1.513460e+00
   55        1.935723e+00
   56        2.219231e+00
   57        3.228979e-01
   58       -1.128136e+00
   59       -3.279491e-01
   60       -4.196748e-01
   61       -2.003486e-01
   62        4.367371e-01
   63        5.701063e-01
   64        1.543090e+00
   65       -1.078856e+00
   66        2.812888e+00
   67       -6.840433e-01
   68        1.421977e+00
   69       -1.328822e+00
   70        2.173701e+00
   71       -1.994392e-01
   72        1.850197e+00
   73       -3.012786e+00
   74       -3.820928e-01
   75       -2.894536e-01
   76       -1.034646e+00
   77        2.375801e+00
   78        2.199735e-01
   79       -9.590500e-02
   80       -9.539013e-01
   81        7.167796e-01
   82       -2.065788e+00
   83       -1.668136e+00
   84       -4.928590e+00
   85       -1.544701e+00
   86       -1.206981e+00
   87       -6.814618e-01
   88        2.310384e+00
   89        1.545232e+00
   90        1.727067e+00
   91        1.056571e+00
   92        4.886097e+00
   93        1.183547e+00
   94       -3.902487e-01
   95        4.964368e-01
   96        1.690742e-01
   97        1.962446e+00
   98        6.821350e-01
   99        1.587187e+00
  100        3.338575e+00
;
param outliervec:=
    1    1
    2    1
    3    0
    4    0
    5    0
    6    0
    7    1
    8    0
    9    0
   10    0
   11    1
   12    1
   13    0
   14    0
   15    0
   16    0
   17    1
   18    1
   19    0
   20    0
   21    0
   22    1
   23    0
   24    0
   25    0
   26    1
   27    0
   28    0
   29    1
   30    0
   31    0
   32    0
   33    0
   34    1
   35    1
   36    1
   37    1
   38    0
   39    0
   40    1
   41    1
   42    0
   43    1
   44    1
   45    0
   46    0
   47    1
   48    0
   49    0
   50    0
   51    0
   52    0
   53    0
   54    1
   55    0
   56    0
   57    1
   58    0
   59    1
   60    1
   61    1
   62    0
   63    1
   64    1
   65    1
   66    0
   67    0
   68    1
   69    0
   70    0
   71    0
   72    0
   73    0
   74    1
   75    1
   76    1
   77    0
   78    1
   79    0
   80    0
   81    0
   82    1
   83    0
   84    0
   85    0
   86    0
   87    1
   88    0
   89    0
   90    0
   91    0
   92    0
   93    1
   94    1
   95    1
   96    1
   97    1
   98    1
   99    0
  100    0
;